gen	cost
1	21091
2	21004
3	20816
4	20640
5	20462
6	20395
7	20266
8	20139
9	20074
10	19992
11	19877
12	19845
13	19773
14	19662
15	19647
16	19556
17	19437
18	19346
19	19309
20	19173
21	19140
22	19069
23	19020
24	18994
25	18937
26	18858
27	18775
28	18739
29	18712
30	18670
31	18626
32	18517
33	18452
34	18441
35	18426
36	18382
37	18323
38	18280
39	18277
40	18244
41	18234
42	18199
43	18156
44	18111
45	18055
46	18018
47	18001
48	17976
49	17950
50	17941

